
Gurobi 6.5.2 (win64) logging started 07/24/16 17:25:49


Gurobi 6.5.2 (win64) logging started 07/24/16 17:25:49

Optimize a model with 482 rows, 157 columns and 1261 nonzeros
Coefficient statistics:
  Matrix range    [1e+00, 4e+02]
  Objective range [2e+00, 4e+02]
  Bounds range    [1e+00, 1e+00]
  RHS range       [1e+00, 2e+03]
Presolve removed 395 rows and 24 columns
Presolve time: 0.00s
Presolved: 87 rows, 133 columns, 528 nonzeros
Variable types: 0 continuous, 133 integer (133 binary)

Root relaxation: objective 1.673000e+03, 34 iterations, 0.00 seconds

    Nodes    |    Current Node    |     Objective Bounds      |     Work
 Expl Unexpl |  Obj  Depth IntInf | Incumbent    BestBd   Gap | It/Node Time

*    0     0               0    1673.0000000 1673.00000  0.00%     -    0s

Explored 0 nodes (34 simplex iterations) in 0.00 seconds
Thread count was 8 (of 8 available processors)

Optimal solution found (tolerance 1.00e-04)
Best objective 1.673000000000e+03, best bound 1.673000000000e+03, gap 0.0%

Wrote requested result file 'H1\instance7\\Results7SG_Sol4.lp'

